NAME : 10_3_3_1_(10).dat
COMMENT : Henke, Speranza, Wäscher, 2015
TYPE : MCVRP
DIMENSION : 11
EDGE_WEIGHT_TYPE : DISTANCE_MATRIX
CAPACITY : 1000
VEHICLES : 3
PRODUCT TYPES : 3
COMPARTMENTS : 3
NODE_COORD_SECTION
1 50 50
2 74.99 17.84
3 57.12 75.68
4 16.72 36.99
5 9.03 47.68
6 42.04 85.17
7 92.81 13.98
8 67.26 18.19
9 85.93 24.79
10 28.55 41.98
11 8.25 7.18
DEMAND_SECTION
1 0 0 0
2 0 257 0
3 116 0 0
4 25 0 0
5 63 0 0
6 14 0 0
7 0 0 151
8 0 0 165
9 330 0 0
10 0 217 0
11 242 0 0
DEPOT_SECTION
1
EOF